(set-info :source |printed by MathSAT|)
(declare-fun |.x{1}| () Int)
(declare-fun |.x{1013}| () Int)
(declare-fun |.x{2}| () Int)
(declare-fun |.x{1014}| () Int)
(declare-fun |.x{3}| () Int)
(declare-fun |.x{1015}| () Int)
(declare-fun |.x{49}| () Int)
(declare-fun |.x{1016}| () Int)
(declare-fun |.x{5}| () Int)
(declare-fun |.x{1017}| () Int)
(declare-fun |.x{6}| () Int)
(declare-fun |.x{1018}| () Int)
(declare-fun |.x{7}| () Int)
(declare-fun |.x{1019}| () Int)
(declare-fun |.x{8}| () Int)
(declare-fun |.x{1020}| () Int)
(declare-fun |.x{9}| () Int)
(declare-fun |.x{1021}| () Int)
(declare-fun |.x{10}| () (Array Int Int))
(declare-fun |.x{1022}| () (Array Int Int))
(declare-fun |.x{11}| () (Array Int Int))
(declare-fun |.x{1023}| () (Array Int Int))
(declare-fun |.x{12}| () Int)
(declare-fun |.x{1024}| () Int)
(declare-fun |.x{13}| () Int)
(declare-fun |.x{1025}| () Int)
(declare-fun |.x{14}| () Int)
(declare-fun |.x{1026}| () Int)
(declare-fun |.x{15}| () Int)
(declare-fun |.x{1027}| () Int)
(declare-fun |.x{16}| () Int)
(declare-fun |.x{1028}| () Int)
(declare-fun |.x{17}| () Int)
(declare-fun |.x{1029}| () Int)
(declare-fun |.x{18}| () Int)
(declare-fun |.x{1030}| () Int)
(declare-fun |.x{64}| () Int)
(declare-fun |.x{1031}| () Int)
(declare-fun |.x{20}| () Int)
(declare-fun |.x{1032}| () Int)
(declare-fun |.x{21}| () Int)
(declare-fun |.x{1033}| () Int)
(declare-fun |.x{22}| () Int)
(declare-fun |.x{1034}| () Int)
(declare-fun |.x{23}| () Int)
(declare-fun |.x{1035}| () Int)
(declare-fun |.x{24}| () Int)
(declare-fun |.x{1036}| () Int)
(declare-fun |.x{70}| () Int)
(declare-fun |.x{1037}| () Int)
(declare-fun |.x{26}| () Int)
(declare-fun |.x{1038}| () Int)
(declare-fun |.x{72}| () (Array Int Int))
(declare-fun |.x{1039}| () (Array Int Int))
(declare-fun |.x{28}| () (Array Int Int))
(declare-fun |.x{1040}| () (Array Int Int))
(declare-fun |.x{29}| () Int)
(declare-fun |.x{1041}| () Int)
(declare-fun |.x{30}| () Int)
(declare-fun |.x{1042}| () Int)
(declare-fun |.x{31}| () Int)
(declare-fun |.x{1043}| () Int)
(declare-fun |.x{32}| () Int)
(declare-fun |.x{1044}| () Int)
(declare-fun |.x{33}| () Int)
(declare-fun |.x{1045}| () Int)
(declare-fun |.x{34}| () Int)
(declare-fun |.x{1046}| () Int)
(declare-fun |.x{35}| () Int)
(declare-fun |.x{1047}| () Int)
(declare-fun |.x{36}| () Int)
(declare-fun |.x{1048}| () Int)
(declare-fun |.x{37}| () Int)
(declare-fun |.x{1049}| () Int)
(declare-fun |.x{38}| () Int)
(declare-fun |.x{1050}| () Int)
(declare-fun |.x{39}| () Int)
(declare-fun |.x{1051}| () Int)
(declare-fun |.x{40}| () Int)
(declare-fun |.x{1052}| () Int)
(declare-fun |.x{41}| () Int)
(declare-fun |.x{1053}| () Int)
(declare-fun |.x{42}| () Int)
(declare-fun |.x{1054}| () Int)
(declare-fun |.x{43}| () Int)
(declare-fun |.x{1055}| () Int)
(declare-fun |.x{44}| () Int)
(declare-fun |.x{1056}| () Int)
(declare-fun |.x{45}| () Bool)
(declare-fun |.x{967}| () Bool)
(declare-fun |.loc{3}| () Bool)
(declare-fun |.loc{5}| () Bool)
(declare-fun |.loc{4}| () Bool)
(declare-fun |.loc{6}| () Bool)
(declare-fun |.x{203}| () (Array Int Int))
(define-fun .def_100 () Bool (! |.loc{4}| :next |.loc{6}|))
(define-fun .def_270 () Bool (not .def_100))
(define-fun .def_98 () Bool (! |.loc{3}| :next |.loc{5}|))
(define-fun .def_115 () Bool (not .def_98))
(define-fun .def_322 () Bool (and .def_115 .def_270))
(define-fun .def_46 () Int (! |.x{20}| :next |.x{1032}|))
(define-fun .def_44 () Int (! |.x{64}| :next |.x{1031}|))
(define-fun .def_316 () Bool (= .def_44 .def_46))
(define-fun .def_58 () Int (! |.x{26}| :next |.x{1038}|))
(define-fun .def_56 () Int (! |.x{70}| :next |.x{1037}|))
(define-fun .def_315 () Bool (= .def_56 .def_58))
(define-fun .def_317 () Bool (and .def_315 .def_316))
(define-fun .def_96 () Bool (! |.x{45}| :next |.x{967}|))
(define-fun .def_314 () Bool (not .def_96))
(define-fun .def_318 () Bool (and .def_314 .def_317))
(define-fun .def_62 () (Array Int Int) (! |.x{28}| :next |.x{1040}|))
(define-fun .def_60 () (Array Int Int) (! |.x{72}| :next |.x{1039}|))
(define-fun .def_313 () Bool (= .def_60 .def_62))
(define-fun .def_319 () Bool (and .def_313 .def_318))
(define-fun .def_28 () (Array Int Int) (! |.x{11}| :next |.x{1023}|))
(define-fun .def_26 () (Array Int Int) (! |.x{10}| :next |.x{1022}|))
(define-fun .def_312 () Bool (= .def_26 .def_28))
(define-fun .def_320 () Bool (and .def_312 .def_319))
(define-fun .def_16 () Int (! |.x{5}| :next |.x{1017}|))
(define-fun .def_14 () Int (! |.x{49}| :next |.x{1016}|))
(define-fun .def_311 () Bool (= .def_14 .def_16))
(define-fun .def_321 () Bool (and .def_311 .def_320))
(define-fun .def_323 () Bool (! (and .def_321 .def_322) :init true))
(define-fun .def_70 () Int (! |.x{32}| :next |.x{1044}|))
(define-fun .def_308 () Bool (= .def_70 |.x{1044}|))
(define-fun .def_68 () Int (! |.x{31}| :next |.x{1043}|))
(define-fun .def_306 () Bool (= .def_68 |.x{1043}|))
(define-fun .def_66 () Int (! |.x{30}| :next |.x{1042}|))
(define-fun .def_304 () Bool (= .def_66 |.x{1042}|))
(define-fun .def_64 () Int (! |.x{29}| :next |.x{1041}|))
(define-fun .def_302 () Bool (= .def_64 |.x{1041}|))
(define-fun .def_300 () Bool (= .def_62 |.x{1040}|))
(define-fun .def_298 () Bool (= .def_58 |.x{1038}|))
(define-fun .def_54 () Int (! |.x{24}| :next |.x{1036}|))
(define-fun .def_296 () Bool (= .def_54 |.x{1036}|))
(define-fun .def_52 () Int (! |.x{23}| :next |.x{1035}|))
(define-fun .def_294 () Bool (= .def_52 |.x{1035}|))
(define-fun .def_50 () Int (! |.x{22}| :next |.x{1034}|))
(define-fun .def_292 () Bool (= .def_50 |.x{1034}|))
(define-fun .def_48 () Int (! |.x{21}| :next |.x{1033}|))
(define-fun .def_290 () Bool (= .def_48 |.x{1033}|))
(define-fun .def_288 () Bool (= .def_46 |.x{1032}|))
(define-fun .def_42 () Int (! |.x{18}| :next |.x{1030}|))
(define-fun .def_286 () Bool (= .def_42 |.x{1030}|))
(define-fun .def_40 () Int (! |.x{17}| :next |.x{1029}|))
(define-fun .def_284 () Bool (= .def_40 |.x{1029}|))
(define-fun .def_38 () Int (! |.x{16}| :next |.x{1028}|))
(define-fun .def_282 () Bool (= .def_38 |.x{1028}|))
(define-fun .def_36 () Int (! |.x{15}| :next |.x{1027}|))
(define-fun .def_280 () Bool (= .def_36 |.x{1027}|))
(define-fun .def_34 () Int (! |.x{14}| :next |.x{1026}|))
(define-fun .def_278 () Bool (= .def_34 |.x{1026}|))
(define-fun .def_32 () Int (! |.x{13}| :next |.x{1025}|))
(define-fun .def_276 () Bool (= .def_32 |.x{1025}|))
(define-fun .def_30 () Int (! |.x{12}| :next |.x{1024}|))
(define-fun .def_274 () Bool (= .def_30 |.x{1024}|))
(define-fun .def_272 () Bool (= .def_28 |.x{1023}|))
(define-fun .def_24 () Int (! |.x{9}| :next |.x{1021}|))
(define-fun .def_268 () Bool (= .def_24 |.x{1021}|))
(define-fun .def_22 () Int (! |.x{8}| :next |.x{1020}|))
(define-fun .def_266 () Bool (= .def_22 |.x{1020}|))
(define-fun .def_20 () Int (! |.x{7}| :next |.x{1019}|))
(define-fun .def_264 () Bool (= .def_20 |.x{1019}|))
(define-fun .def_18 () Int (! |.x{6}| :next |.x{1018}|))
(define-fun .def_262 () Bool (= .def_18 |.x{1018}|))
(define-fun .def_260 () Bool (= .def_16 |.x{1017}|))
(define-fun .def_12 () Int (! |.x{3}| :next |.x{1015}|))
(define-fun .def_258 () Bool (= .def_12 |.x{1015}|))
(define-fun .def_8 () Int (! |.x{1}| :next |.x{1013}|))
(define-fun .def_256 () Bool (= .def_8 |.x{1013}|))
(define-fun .def_10 () Int (! |.x{2}| :next |.x{1014}|))
(define-fun .def_255 () Bool (= .def_10 |.x{1014}|))
(define-fun .def_257 () Bool (and .def_255 .def_256))
(define-fun .def_259 () Bool (and .def_257 .def_258))
(define-fun .def_261 () Bool (and .def_259 .def_260))
(define-fun .def_263 () Bool (and .def_261 .def_262))
(define-fun .def_265 () Bool (and .def_263 .def_264))
(define-fun .def_267 () Bool (and .def_265 .def_266))
(define-fun .def_269 () Bool (and .def_267 .def_268))
(define-fun .def_271 () Bool (and .def_269 .def_270))
(define-fun .def_273 () Bool (and .def_271 .def_272))
(define-fun .def_275 () Bool (and .def_273 .def_274))
(define-fun .def_277 () Bool (and .def_275 .def_276))
(define-fun .def_279 () Bool (and .def_277 .def_278))
(define-fun .def_281 () Bool (and .def_279 .def_280))
(define-fun .def_283 () Bool (and .def_281 .def_282))
(define-fun .def_285 () Bool (and .def_283 .def_284))
(define-fun .def_287 () Bool (and .def_285 .def_286))
(define-fun .def_289 () Bool (and .def_287 .def_288))
(define-fun .def_291 () Bool (and .def_289 .def_290))
(define-fun .def_293 () Bool (and .def_291 .def_292))
(define-fun .def_295 () Bool (and .def_293 .def_294))
(define-fun .def_297 () Bool (and .def_295 .def_296))
(define-fun .def_299 () Bool (and .def_297 .def_298))
(define-fun .def_301 () Bool (and .def_299 .def_300))
(define-fun .def_303 () Bool (and .def_301 .def_302))
(define-fun .def_305 () Bool (and .def_303 .def_304))
(define-fun .def_307 () Bool (and .def_305 .def_306))
(define-fun .def_309 () Bool (and .def_307 .def_308))
(define-fun .def_161 () Bool (= |.x{1051}| 0))
(define-fun .def_247 () Bool (or .def_96 .def_161))
(define-fun .def_182 () Bool (= |.x{1051}| |.x{1055}|))
(define-fun .def_177 () Bool (= |.x{1047}| |.x{1053}|))
(define-fun .def_178 () Bool (not .def_177))
(define-fun .def_175 () Bool (= |.x{1046}| |.x{1048}|))
(define-fun .def_176 () Bool (not .def_175))
(define-fun .def_179 () Bool (or .def_176 .def_178))
(define-fun .def_180 () Int (ite .def_179 1 0))
(define-fun .def_181 () Bool (= |.x{1055}| .def_180))
(define-fun .def_183 () Bool (and .def_181 .def_182))
(define-fun .def_172 () Bool (= |.x{1053}| 0))
(define-fun .def_173 () Bool (not .def_172))
(define-fun .def_170 () Bool (= |.x{1046}| 0))
(define-fun .def_171 () Bool (not .def_170))
(define-fun .def_174 () Bool (or .def_171 .def_173))
(define-fun .def_184 () Bool (and .def_174 .def_183))
(define-fun .def_167 () Bool (= |.x{1047}| 0))
(define-fun .def_168 () Bool (not .def_167))
(define-fun .def_165 () Bool (= |.x{1048}| 0))
(define-fun .def_166 () Bool (not .def_165))
(define-fun .def_169 () Bool (or .def_166 .def_168))
(define-fun .def_185 () Bool (and .def_169 .def_184))
(define-fun .def_245 () Bool (or .def_96 .def_185))
(define-fun .def_154 () Bool (= |.x{1048}| |.x{1056}|))
(define-fun .def_151 () Int (select |.x{203}| |.x{1050}|))
(define-fun .def_152 () Bool (= .def_151 0))
(define-fun .def_149 () Bool (= |.x{1050}| |.x{1053}|))
(define-fun .def_146 () Bool (= |.x{1056}| 0))
(define-fun .def_143 () Bool (= |.x{1050}| 0))
(define-fun .def_144 () Bool (not .def_143))
(define-fun .def_140 () Bool (= |.x{1054}| 0))
(define-fun .def_141 () Bool (not .def_140))
(define-fun .def_137 () Bool (= |.x{1046}| |.x{1049}|))
(define-fun .def_135 () Bool (= |.x{1047}| |.x{1054}|))
(define-fun .def_133 () Bool (= |.x{1049}| 0))
(define-fun .def_126 () (Array Int Int) (store |.x{203}| |.x{1050}| 1))
(define-fun .def_129 () Int (select .def_126 |.x{1054}|))
(define-fun .def_130 () Bool (= .def_129 0))
(define-fun .def_127 () (Array Int Int) (store .def_126 |.x{1054}| 1))
(define-fun .def_128 () Bool (= |.x{1039}| .def_127))
(define-fun .def_131 () Bool (and .def_128 .def_130))
(define-fun .def_122 () (Array Int Int) (store .def_26 |.x{1050}| 4))
(define-fun .def_123 () (Array Int Int) (store .def_122 |.x{1054}| 4))
(define-fun .def_124 () Bool (= |.x{1022}| .def_123))
(define-fun .def_132 () Bool (and .def_124 .def_131))
(define-fun .def_134 () Bool (and .def_132 .def_133))
(define-fun .def_136 () Bool (and .def_134 .def_135))
(define-fun .def_138 () Bool (and .def_136 .def_137))
(define-fun .def_119 () Bool (<= |.x{1035}| |.x{1054}|))
(define-fun .def_120 () Bool (not .def_119))
(define-fun .def_139 () Bool (and .def_120 .def_138))
(define-fun .def_142 () Bool (and .def_139 .def_141))
(define-fun .def_145 () Bool (and .def_142 .def_144))
(define-fun .def_147 () Bool (and .def_145 .def_146))
(define-fun .def_117 () Bool (<= |.x{1035}| |.x{1050}|))
(define-fun .def_118 () Bool (not .def_117))
(define-fun .def_148 () Bool (and .def_118 .def_147))
(define-fun .def_150 () Bool (and .def_148 .def_149))
(define-fun .def_153 () Bool (and .def_150 .def_152))
(define-fun .def_155 () Bool (and .def_153 .def_154))
(define-fun .def_243 () Bool (or .def_96 .def_155))
(define-fun .def_111 () Bool (= |.x{1037}| 0))
(define-fun .def_108 () (Array Int Int) (store .def_60 0 0))
(define-fun .def_109 () Bool (= |.x{203}| .def_108))
(define-fun .def_105 () Bool (= |.x{1016}| 0))
(define-fun .def_104 () Bool (= |.x{1031}| 0))
(define-fun .def_106 () Bool (and .def_104 .def_105))
(define-fun .def_110 () Bool (and .def_106 .def_109))
(define-fun .def_112 () Bool (and .def_110 .def_111))
(define-fun .def_113 () Bool (or .def_96 .def_112))
(define-fun .def_203 () Bool (and |.x{967}| .def_113))
(define-fun .def_241 () Bool (and |.x{967}| .def_203))
(define-fun .def_242 () Bool (and .def_115 .def_241))
(define-fun .def_244 () Bool (and .def_242 .def_243))
(define-fun .def_246 () Bool (and .def_244 .def_245))
(define-fun .def_248 () Bool (and .def_246 .def_247))
(define-fun .def_72 () Int (! |.x{33}| :next |.x{1045}|))
(define-fun .def_188 () Bool (= .def_72 |.x{1045}|))
(define-fun .def_249 () Bool (and .def_188 .def_248))
(define-fun .def_90 () Int (! |.x{42}| :next |.x{1054}|))
(define-fun .def_82 () Int (! |.x{38}| :next |.x{1050}|))
(define-fun .def_235 () (Array Int Int) (store .def_60 .def_82 0))
(define-fun .def_236 () (Array Int Int) (store .def_235 .def_90 0))
(define-fun .def_237 () Bool (= |.x{1039}| .def_236))
(define-fun .def_234 () Bool (= |.x{1052}| 0))
(define-fun .def_238 () Bool (and .def_234 .def_237))
(define-fun .def_239 () Bool (or .def_96 .def_238))
(define-fun .def_232 () Bool (= .def_14 |.x{1016}|))
(define-fun .def_230 () Bool (= .def_26 |.x{1022}|))
(define-fun .def_228 () Bool (= .def_44 |.x{1031}|))
(define-fun .def_226 () Bool (= .def_56 |.x{1037}|))
(define-fun .def_74 () Int (! |.x{34}| :next |.x{1046}|))
(define-fun .def_224 () Bool (= .def_74 |.x{1046}|))
(define-fun .def_76 () Int (! |.x{35}| :next |.x{1047}|))
(define-fun .def_222 () Bool (= .def_76 |.x{1047}|))
(define-fun .def_78 () Int (! |.x{36}| :next |.x{1048}|))
(define-fun .def_220 () Bool (= .def_78 |.x{1048}|))
(define-fun .def_88 () Int (! |.x{41}| :next |.x{1053}|))
(define-fun .def_217 () Bool (= .def_88 |.x{1053}|))
(define-fun .def_212 () Bool (= |.x{1045}| |.x{1052}|))
(define-fun .def_213 () Bool (or |.x{967}| .def_212))
(define-fun .def_214 () Bool (and .def_98 .def_213))
(define-fun .def_102 () Bool (= .def_96 |.x{967}|))
(define-fun .def_215 () Bool (and .def_102 .def_214))
(define-fun .def_92 () Int (! |.x{43}| :next |.x{1055}|))
(define-fun .def_195 () Bool (= .def_92 |.x{1055}|))
(define-fun .def_216 () Bool (and .def_195 .def_215))
(define-fun .def_218 () Bool (and .def_216 .def_217))
(define-fun .def_84 () Int (! |.x{39}| :next |.x{1051}|))
(define-fun .def_198 () Bool (= .def_84 |.x{1051}|))
(define-fun .def_219 () Bool (and .def_198 .def_218))
(define-fun .def_221 () Bool (and .def_219 .def_220))
(define-fun .def_223 () Bool (and .def_221 .def_222))
(define-fun .def_225 () Bool (and .def_223 .def_224))
(define-fun .def_227 () Bool (and .def_225 .def_226))
(define-fun .def_229 () Bool (and .def_227 .def_228))
(define-fun .def_231 () Bool (and .def_229 .def_230))
(define-fun .def_233 () Bool (and .def_231 .def_232))
(define-fun .def_240 () Bool (and .def_233 .def_239))
(define-fun .def_250 () Bool (or .def_240 .def_249))
(define-fun .def_209 () Bool (not |.loc{5}|))
(define-fun .def_210 () Bool (and |.loc{6}| .def_209))
(define-fun .def_211 () Bool (and .def_209 .def_210))
(define-fun .def_251 () Bool (and .def_211 .def_250))
(define-fun .def_204 () Bool (and .def_115 .def_203))
(define-fun .def_205 () Bool (and .def_96 .def_204))
(define-fun .def_206 () Bool (and |.loc{5}| .def_205))
(define-fun .def_159 () Bool (not |.loc{6}|))
(define-fun .def_207 () Bool (and .def_159 .def_206))
(define-fun .def_208 () Bool (and .def_188 .def_207))
(define-fun .def_252 () Bool (or .def_208 .def_251))
(define-fun .def_191 () Bool (and .def_170 .def_172))
(define-fun .def_190 () Bool (and .def_165 .def_167))
(define-fun .def_192 () Bool (or .def_190 .def_191))
(define-fun .def_193 () Bool (or |.x{967}| .def_192))
(define-fun .def_114 () Bool (and .def_102 .def_113))
(define-fun .def_116 () Bool (and .def_114 .def_115))
(define-fun .def_194 () Bool (and .def_116 .def_193))
(define-fun .def_196 () Bool (and .def_194 .def_195))
(define-fun .def_156 () Bool (or |.x{967}| .def_155))
(define-fun .def_197 () Bool (and .def_156 .def_196))
(define-fun .def_199 () Bool (and .def_197 .def_198))
(define-fun .def_200 () Bool (and |.loc{5}| .def_199))
(define-fun .def_201 () Bool (and .def_159 .def_200))
(define-fun .def_202 () Bool (and .def_188 .def_201))
(define-fun .def_253 () Bool (or .def_202 .def_252))
(define-fun .def_186 () Bool (or |.x{967}| .def_185))
(define-fun .def_162 () Bool (not .def_161))
(define-fun .def_163 () Bool (or |.x{967}| .def_162))
(define-fun .def_157 () Bool (and .def_116 .def_156))
(define-fun .def_158 () Bool (and |.loc{5}| .def_157))
(define-fun .def_160 () Bool (and .def_158 .def_159))
(define-fun .def_164 () Bool (and .def_160 .def_163))
(define-fun .def_187 () Bool (and .def_164 .def_186))
(define-fun .def_189 () Bool (and .def_187 .def_188))
(define-fun .def_254 () Bool (or .def_189 .def_253))
(define-fun .def_310 () Bool (! (and .def_254 .def_309) :trans true))
(define-fun .def_80 () Int (! |.x{37}| :next |.x{1049}|))
(define-fun .def_86 () Int (! |.x{40}| :next |.x{1052}|))
(define-fun .def_94 () Int (! |.x{44}| :next |.x{1056}|))
(define-fun .def_324 () Bool (and .def_100 .def_115))
(define-fun .def_325 () Bool (and .def_96 .def_324))
(define-fun .def_326 () Bool (! (not .def_325) :invar-property 0))
(assert true)
